NAME : morphed18-5-18
COMMENT : Generated using the function morphInstances from the R-package netgen (Bossek,2015) - Number of clusters: 5 Alpha: 0.5
TYPE : TSP
DIMENSION : 18
EDGE_WEIGHT_TYPE : EUC_2D
NODE_COORD_SECTION
1 85.826467691 65.91566805
2 75.6770827669 12.7411955267
3 94.8327218281 20.1571202801
4 18.1300584465 6.5877670942
5 13.9398295473 80.3732848609
6 58.9128657538 82.3326921458
7 38.8998296106 7.5873932082
8 53.2580270294 66.0804171611
9 45.2484249789 56.1842509163
10 41.7820726764 48.0908105829
11 73.0221316707 22.2365319594
12 80.5690187311 34.5425969407
13 15.4837339346 87.5328005214
14 46.2603350054 50.9885298089
15 98.5789443043 26.2948488302
16 21.0947706175 18.8784926525
17 56.2011056367 35.5551663791
18 13.0719045275 75.7097052248
EOF
